3 100 1704
7 5 6 10 8 6 5 9 2 8
1 4 1
5
8 5 2 9
2
0 35.0 35.0 0.0 0.0 0 230
2 41.0 49.0 10.0 10.0 130 201 94 0 0 0 1 0 0 0 0 0 0
3 35.0 17.0 10.0 7.0 20 89 45 0 0 0 0 0 0 1 1 0 1
4 55.0 45.0 10.0 13.0 106 135 29 0 0 0 0 0 1 0 0 0 0
5 55.0 20.0 10.0 19.0 71 195 20 0 0 0 1 1 0 0 0 0 1
6 15.0 30.0 10.0 26.0 20 107 94 0 0 0 0 0 0 0 1 0 1
7 25.0 30.0 10.0 3.0 54 153 86 0 1 0 0 0 0 0 0 0 1
8 20.0 50.0 10.0 5.0 66 105 11 0 0 0 0 0 1 0 0 0 0
9 10.0 43.0 10.0 9.0 61 138 15 0 0 0 0 0 0 1 0 0 0
10 55.0 60.0 10.0 16.0 53 150 8 0 0 0 0 0 1 0 0 0 0
11 30.0 60.0 10.0 16.0 101 156 42 0 1 0 0 0 0 0 1 0 0
12 20.0 65.0 10.0 12.0 33 152 62 0 1 0 0 0 0 0 0 0 0
13 50.0 35.0 10.0 19.0 38 97 25 0 0 0 0 1 0 0 0 1 0
14 30.0 25.0 10.0 23.0 70 208 57 0 0 0 0 1 1 1 0 0 1
15 15.0 10.0 10.0 20.0 32 137 63 1 0 0 1 0 0 0 0 0 0
16 30.0 5.0 10.0 8.0 30 154 48 0 0 1 0 0 0 1 0 0 0
17 10.0 20.0 10.0 19.0 54 105 84 0 0 0 0 1 0 0 1 0 0
18 5.0 30.0 10.0 2.0 51 189 15 0 0 0 1 0 0 1 0 0 0
19 20.0 40.0 10.0 12.0 77 106 26 0 1 0 0 0 0 0 0 1 0
20 15.0 60.0 10.0 17.0 53 108 76 0 0 0 0 0 0 0 1 0 0
21 45.0 65.0 10.0 9.0 109 152 70 0 0 0 0 0 1 0 0 0 0
22 45.0 20.0 10.0 11.0 37 96 89 0 0 1 1 0 1 1 0 0 0
23 45.0 10.0 10.0 18.0 59 144 97 0 1 0 0 0 0 0 0 0 0
24 55.0 5.0 10.0 29.0 36 155 57 0 0 0 1 0 0 0 1 0 0
25 65.0 35.0 10.0 3.0 118 190 61 0 1 0 0 0 0 1 0 0 0
26 65.0 20.0 10.0 6.0 47 186 29 0 0 1 0 0 0 0 0 1 0
27 45.0 30.0 10.0 17.0 117 156 47 0 0 0 0 0 1 0 0 0 0
28 35.0 40.0 10.0 16.0 5 156 34 1 0 0 1 0 1 1 0 0 0
29 41.0 37.0 10.0 16.0 8 79 67 0 0 0 0 0 1 0 0 0 0
30 64.0 42.0 10.0 9.0 37 98 34 1 1 0 0 0 0 0 0 1 0
31 40.0 60.0 10.0 21.0 28 123 62 0 0 0 0 1 0 0 0 1 0
32 31.0 52.0 10.0 27.0 24 85 64 0 1 0 0 0 0 0 0 0 0
33 35.0 69.0 10.0 23.0 116 175 47 0 0 0 0 1 0 1 0 0 0
34 53.0 52.0 10.0 11.0 24 179 57 1 1 0 0 0 0 0 0 0 0
35 65.0 55.0 10.0 14.0 100 143 79 0 0 0 1 0 0 0 1 0 0
36 63.0 65.0 10.0 8.0 50 178 22 0 0 0 0 0 0 0 1 0 1
37 2.0 60.0 10.0 5.0 41 178 1 0 0 0 0 1 0 0 0 0 1
38 20.0 20.0 10.0 8.0 117 160 84 0 0 0 0 0 1 0 0 0 0
39 5.0 5.0 10.0 16.0 42 145 70 0 1 0 0 0 0 1 1 0 0
40 60.0 12.0 10.0 31.0 33 186 56 1 0 0 1 1 1 0 0 0 0
41 40.0 25.0 10.0 9.0 51 128 4 0 0 0 0 0 1 0 0 1 0
42 42.0 7.0 10.0 5.0 44 159 89 1 0 0 0 0 0 0 0 1 0
43 24.0 12.0 10.0 5.0 25 172 8 0 0 0 0 0 1 0 0 0 0
44 23.0 3.0 10.0 7.0 115 158 34 0 0 0 1 0 0 1 1 0 0
45 11.0 14.0 10.0 18.0 31 138 31 0 0 1 0 1 0 1 0 0 0
46 6.0 38.0 10.0 16.0 29 189 5 0 0 0 0 0 1 0 0 0 0
47 2.0 48.0 10.0 1.0 93 150 95 1 0 0 1 0 0 0 0 0 0
48 8.0 56.0 10.0 27.0 34 116 21 0 0 0 0 1 0 0 0 0 0
49 13.0 52.0 10.0 36.0 125 192 34 1 0 0 1 0 0 1 0 0 1
50 6.0 68.0 10.0 30.0 93 132 34 1 0 0 0 0 1 0 0 0 0
51 47.0 47.0 10.0 13.0 105 152 97 0 1 1 0 0 0 1 0 0 0
52 49.0 58.0 10.0 10.0 66 119 72 1 0 0 0 0 1 1 0 0 0
53 27.0 43.0 10.0 9.0 25 88 79 0 0 0 0 0 0 1 1 0 0
54 37.0 31.0 10.0 14.0 62 137 96 0 0 0 1 0 0 0 0 0 0
55 57.0 29.0 10.0 18.0 121 168 17 0 0 0 0 0 0 0 0 0 1
56 63.0 23.0 10.0 2.0 70 189 49 1 0 1 0 0 0 1 0 0 0
57 53.0 12.0 10.0 6.0 81 188 79 0 0 0 0 0 0 1 0 0 0
58 32.0 12.0 10.0 7.0 78 133 0 0 0 0 0 0 0 0 1 1 0
59 36.0 26.0 10.0 18.0 79 210 64 0 0 0 0 0 1 0 0 0 0
60 21.0 24.0 10.0 28.0 17 123 38 0 0 0 1 0 0 0 0 0 0
61 17.0 34.0 10.0 3.0 130 201 55 0 0 0 1 0 1 0 0 0 1
62 12.0 24.0 10.0 13.0 59 102 35 0 0 1 0 1 0 0 1 0 0
63 24.0 58.0 10.0 19.0 25 164 8 0 1 1 1 1 0 0 0 0 0
64 27.0 69.0 10.0 10.0 34 112 51 0 0 1 0 0 0 0 0 0 0
65 15.0 77.0 10.0 9.0 46 165 45 0 0 0 1 1 0 0 0 0 0
66 62.0 77.0 10.0 20.0 49 170 53 0 0 0 0 0 1 0 0 0 0
67 49.0 73.0 10.0 25.0 77 179 87 0 1 0 0 1 0 0 0 1 0
68 67.0 5.0 10.0 25.0 43 150 99 1 0 0 0 0 0 0 0 0 0
69 56.0 39.0 10.0 36.0 82 198 96 0 0 1 0 0 0 1 0 0 0
70 37.0 47.0 10.0 6.0 12 142 29 0 0 0 0 1 0 0 0 0 1
71 37.0 56.0 10.0 5.0 21 198 15 0 0 0 0 0 1 0 0 0 0
72 57.0 68.0 10.0 15.0 57 106 11 0 1 1 0 0 0 1 0 0 0
73 47.0 16.0 10.0 25.0 22 110 21 0 1 1 0 1 0 0 0 1 0
74 44.0 17.0 10.0 9.0 60 105 61 0 0 0 0 0 0 1 0 0 1
75 46.0 13.0 10.0 8.0 73 195 13 0 0 0 0 0 1 0 0 0 0
76 49.0 11.0 10.0 18.0 46 101 76 1 1 0 0 0 0 0 0 0 0
77 49.0 42.0 10.0 13.0 36 119 58 0 0 0 0 1 0 0 1 0 0
78 53.0 43.0 10.0 14.0 65 200 52 0 0 0 0 0 1 0 0 0 0
79 61.0 52.0 10.0 3.0 43 158 0 0 1 0 1 0 0 0 0 0 0
80 57.0 48.0 10.0 23.0 58 135 80 0 0 0 0 1 0 0 1 0 0
81 56.0 37.0 10.0 6.0 69 198 9 0 0 0 1 0 0 0 0 0 1
82 55.0 54.0 10.0 26.0 87 110 32 0 0 0 0 0 1 0 0 0 0
83 15.0 47.0 10.0 16.0 28 91 64 0 0 0 0 0 1 0 0 0 0
84 14.0 37.0 10.0 11.0 21 97 35 0 1 0 0 1 1 1 1 0 0
85 11.0 31.0 10.0 7.0 68 143 27 0 0 0 0 1 0 0 0 0 0
86 16.0 22.0 10.0 41.0 74 117 47 0 0 0 0 0 1 1 1 1 0
87 4.0 18.0 10.0 35.0 79 118 29 0 0 0 0 0 0 0 1 0 0
88 28.0 18.0 10.0 26.0 84 111 71 0 0 0 0 1 0 1 1 0 0
89 26.0 52.0 10.0 9.0 24 133 40 0 1 0 0 1 0 0 0 0 0
90 26.0 35.0 10.0 15.0 128 211 46 0 0 0 0 0 0 0 0 0 1
91 31.0 67.0 10.0 3.0 76 123 31 0 0 1 1 0 0 0 0 0 1
92 15.0 19.0 10.0 1.0 130 194 38 1 0 0 0 0 0 0 0 0 1
93 22.0 22.0 10.0 2.0 18 181 19 0 0 0 0 0 1 1 0 0 0
94 18.0 24.0 10.0 22.0 41 199 69 0 0 1 0 0 1 0 0 0 0
95 26.0 27.0 10.0 27.0 88 121 70 0 0 0 0 0 0 1 1 0 0
96 25.0 24.0 10.0 20.0 14 83 71 0 0 1 0 0 0 0 1 0 1
97 22.0 27.0 10.0 11.0 119 160 14 0 0 0 0 0 0 0 1 0 1
98 25.0 21.0 10.0 12.0 122 153 70 0 0 0 0 0 0 0 1 0 0
99 19.0 21.0 10.0 10.0 32 93 35 0 0 0 0 0 0 0 0 1 0
100 20.0 26.0 10.0 9.0 38 137 8 0 0 0 0 0 0 1 0 0 0
101 18.0 18.0 10.0 17.0 28 195 99 0 0 0 1 0 0 0 1 0 0